Results/Experiment 1 Results/New Benchmark/RES_20/output_p1_0.00_p2_0.00_n_20_09.txt
solutions: 72 nodes: 130  modelTime: 136  solveTime: 25  totalTime: 163  modelSize: 7358  readTime: 2 matchingSize: 10
